20  5
  0  19  1  67  2  18  3  94  4  90
  0  16  1  95  2  42  3  40  4  70
  0  4  1  84  2  94  3  28  4  61
  0  33  1  7  2  1  3  11  4  28
  0  12  1  9  2  89  3  27  4  63
  0  89  1  34  2  61  3  88  4  71
  0  3  1  48  2  79  3  77  4  15
  0  3  1  18  2  27  3  30  4  78
  0  85  1  72  2  41  3  25  4  31
  0  75  1  41  2  44  3  76  4  17
  0  74  1  92  2  82  3  96  4  16
  0  51  1  18  2  56  3  6  4  58
  0  4  1  49  2  45  3  85  4  12
  0  20  1  44  2  4  3  49  4  82
  0  56  1  58  2  59  3  5  4  44
  0  51  1  16  2  41  3  79  4  17
  0  94  1  63  2  52  3  19  4  48
  0  88  1  39  2  11  3  10  4  4
  0  88  1  43  2  22  3  31  4  76
  0  7  1  48  2  91  3  69  4  45
